3 
4  46 
5  07 27 41 48 56 
6  03 11 19 25 34 41 49 55 
7  01 09 16 24 31 39 46 54 
8  01 09 16 24 31 39 46 54 
9  01 09 16 24 31 39 46 54 
10  01 09 16 24 31 39 46 54 
11  01 09 16 24 31 39 46 54 
12  01 09 16 24 31 39 46 54 
13  01 09 16 24 31 39 46 54 
14  01 09 16 24 31 39 46 54 
15  00 09 16 24 31 39 46 54 
16  00 09 16 24 31 39 46 54 
17  01 09 16 24 31 39 46 54 
18  01 09 16 24 32 39 46 54 
19  01 09 16 24 31 39 46 54 
20  01 11 26 41 56 
21  11 26 41 56 
22  08 21 36 51 
23 
